(set-logic QF_S)
(set-option :strings-exp true)
(set-option :produce-models true)
(declare-fun sigmaStar_0 () String)
(declare-fun sigmaStar_1 () String)
(declare-fun literal_6 () String)
(assert (= literal_6 "\x2f\x63\x6f\x75\x72\x73\x65\x2f\x76\x69\x65\x77\x2e\x70\x68\x70\x3f\x69\x64\x3d\x26"))
(assert (str.in.re literal_6 (re.++ (re.* re.allchar) (re.++ (str.to.re "\x5c\x3c\x53\x43\x52\x49\x50\x54") (re.* re.allchar)))))
(check-sat)
(get-model)
